(set-option :produce-models true)
(set-logic QF_UF)
(declare-fun p29() Bool)
(declare-fun p17() Bool)
(declare-fun p48() Bool)
(declare-fun p3() Bool)
(declare-fun p50() Bool)
(declare-fun p77() Bool)
(declare-fun p41() Bool)
(declare-fun p61() Bool)
(declare-fun p56() Bool)
(declare-fun p72() Bool)
(declare-fun p74() Bool)
(declare-fun p69() Bool)
(declare-fun p49() Bool)
(declare-fun p36() Bool)
(declare-fun p62() Bool)
(declare-fun p19() Bool)
(declare-fun p45() Bool)
(declare-fun p6() Bool)
(declare-fun p18() Bool)
(declare-fun p5() Bool)
(declare-fun p70() Bool)
(declare-fun p52() Bool)
(declare-fun p24() Bool)
(declare-fun p85() Bool)
(declare-fun p2() Bool)
(declare-fun p10() Bool)
(declare-fun p65() Bool)
(declare-fun p21() Bool)
(declare-fun p35() Bool)
(declare-fun p86() Bool)
(declare-fun p32() Bool)
(declare-fun p26() Bool)
(declare-fun p30() Bool)
(declare-fun p53() Bool)
(declare-fun p89() Bool)
(declare-fun p73() Bool)
(declare-fun p95() Bool)
(declare-fun p57() Bool)
(declare-fun p63() Bool)
(declare-fun p43() Bool)
(declare-fun p14() Bool)
(declare-fun p60() Bool)
(declare-fun p55() Bool)
(declare-fun p97() Bool)
(declare-fun p39() Bool)
(declare-fun p64() Bool)
(declare-fun p99() Bool)
(declare-fun p47() Bool)
(declare-fun p15() Bool)
(declare-fun p66() Bool)
(declare-fun p78() Bool)
(declare-fun p20() Bool)
(declare-fun p40() Bool)
(declare-fun p31() Bool)
(declare-fun p28() Bool)
(declare-fun p88() Bool)
(declare-fun p82() Bool)
(declare-fun p27() Bool)
(declare-fun p67() Bool)
(declare-fun p76() Bool)
(declare-fun p71() Bool)
(declare-fun p4() Bool)
(declare-fun p1() Bool)
(declare-fun p51() Bool)
(declare-fun p0() Bool)
(declare-fun p46() Bool)
(declare-fun p92() Bool)
(declare-fun p8() Bool)
(declare-fun p58() Bool)
(declare-fun p25() Bool)
(declare-fun p91() Bool)
(declare-fun p84() Bool)
(declare-fun p42() Bool)
(declare-fun p98() Bool)
(declare-fun p13() Bool)
(declare-fun p44() Bool)
(declare-fun p81() Bool)
(declare-fun p11() Bool)
(declare-fun p96() Bool)
(declare-fun p59() Bool)
(declare-fun p54() Bool)
(declare-fun p33() Bool)
(declare-fun p9() Bool)
(declare-fun p75() Bool)
(declare-fun p16() Bool)
(declare-fun p22() Bool)
(declare-fun p34() Bool)
(declare-fun p83() Bool)
(declare-fun p7() Bool)
(declare-fun p80() Bool)
(declare-fun p79() Bool)
(declare-fun p12() Bool)
(declare-fun p37() Bool)
(declare-fun p23() Bool)
(declare-fun p93() Bool)
(declare-fun p38() Bool)
(declare-fun p94() Bool)
(declare-fun p87() Bool)
(declare-fun p90() Bool)
(declare-fun p68() Bool)
(assert
(and (or p29 p17 p48) (or p3 p50 p77) (or p41 p61 (not p56)) (or p72 (not p74) (not p69)) (or (not p49) p36 p62) (or (not p19) (not p45) p48) (or (not p6) (not p18) (not p5)) (or p70 p48 (not p52)) (or p24 (not p85) (not p2)) (or p10 (not p65) p21) (or (not p35) p86 p32) (or (not p26) (not p30) (not p53)) (or p89 (not p69) p18) (or (not p49) (not p73) (not p95)) (or (not p57) p63 (not p3)) (or p43 (not p14) p49) (or p14 (not p60) p55) (or (not p97) (not p39) (not p45)) (or p39 (not p57) (not p64)) (or (not p99) (not p30) (not p52)) (or p47 (not p15) (not p66)) (or p21 p89 (not p99)) (or (not p36) p78 (not p20)) (or p20 p40 (not p31)) (or (not p28) (not p78) (not p88)) (or p82 (not p69) (not p30)) (or (not p47) p24 (not p27)) (or (not p67) (not p76) (not p65)) (or (not p6) (not p26) p62) (or p71 p36 p4) (or (not p67) p19 p1) (or p51 (not p76) (not p28)) (or p0 (not p40) (not p76)) (or (not p46) (not p46) p92) (or (not p8) p88 (not p55)) (or p20 p48 (not p57)) (or (not p58) (not p25) (not p29)) (or (not p10) p53 (not p91)) (or (not p82) (not p91) (not p84)) (or p42 p43 p0) (or (not p50) p66 (not p27)) (or p57 (not p28) (not p39)) (or p15 p1 (not p82)) (or p30 (not p3) (not p19)) (or (not p98) (not p25) (not p97)) (or (not p5) p4 (not p29)) (or p13 (not p89) (not p42)) (or (not p44) (not p81) p97) (or (not p32) p77 (not p6)) (or (not p15) (not p62) p57) (or p43 (not p69) (not p11)) (or (not p96) p61 (not p44)) (or p57 p59 p10) (or (not p17) p2 (not p17)) (or p54 p89 (not p4)) (or p39 p77 (not p33)) (or (not p74) p6 (not p72)) (or p3 (not p0) (not p96)) (or (not p32) p60 p9) (or p44 (not p31) (not p99)) (or (not p75) p16 (not p22)) (or p21 p18 (not p34)) (or (not p72) (not p83) p7) (or (not p40) p42 (not p96)) (or p80 p16 (not p41)) (or p88 (not p31) (not p57)) (or (not p80) (not p79) (not p96)) (or p60 p43 p59) (or (not p95) p95 p33) (or (not p74) (not p74) p14) (or p35 (not p96) p6) (or (not p91) (not p10) (not p35)) (or (not p45) (not p19) (not p46)) (or (not p63) (not p19) (not p31)) (or p1 (not p39) p42) (or p40 (not p12) (not p81)) (or p0 (not p64) p17) (or (not p49) (not p15) p73) (or (not p50) (not p62) p82) (or p73 (not p18) (not p64)) (or (not p61) (not p50) p37) (or p8 p19 p26) (or p23 (not p70) (not p11)) (or p13 p91 (not p48)) (or p93 (not p21) (not p98)) (or (not p60) (not p99) p72) (or p91 (not p38) (not p75)) (or (not p84) (not p83) (not p20)) (or (not p69) p59 (not p99)) (or (not p41) p32 p25) (or p92 (not p47) (not p30)) (or (not p94) (not p14) p89) (or p31 (not p99) (not p5)) (or p34 p61 p79) (or p59 p95 (not p44)) (or (not p40) p45 (not p72)) (or p18 (not p0) (not p64)) (or (not p13) (not p79) (not p53)) (or (not p35) p69 p25) (or p47 (not p39) p16) (or p98 p49 (not p67)) (or p55 p10 (not p61)) (or p15 (not p71) p71) (or p52 p43 p21) (or (not p81) p60 (not p33)) (or (not p71) (not p64) (not p91)) (or p15 p40 p11) (or (not p9) p38 (not p97)) (or p85 (not p14) p26) (or (not p62) p34 p11) (or (not p3) p92 (not p99)) (or p14 (not p21) p97) (or (not p14) (not p93) p4) (or p50 (not p61) (not p67)) (or (not p76) (not p52) p63) (or (not p61) p49 (not p12)) (or (not p45) (not p38) (not p13)) (or (not p71) (not p11) (not p37)) (or p96 p3 p15) (or (not p89) (not p7) (not p96)) (or (not p95) p79 p78) (or (not p87) (not p90) p61) (or p28 (not p64) (not p79)) (or (not p21) p22 (not p29)) (or p25 (not p88) p51) (or p73 p87 p82) (or (not p74) p55 p73) (or (not p93) p44 (not p13)) (or p65 p29 p98) (or p79 p75 p30) (or (not p84) (not p7) (not p96)) (or p1 p50 p14) (or p57 (not p59) p71) (or p97 p6 (not p79)) (or (not p4) (not p26) (not p1)) (or p3 p36 p91) (or p21 (not p45) p53) (or p54 p80 p1) (or (not p31) p23 p31) (or (not p72) p97 (not p1)) (or (not p86) (not p12) p35) (or (not p26) p94 (not p20)) (or p81 p65 p65) (or p23 (not p42) p44) (or p66 p52 p99) (or p21 (not p86) p40) (or p52 (not p92) p48) (or (not p45) p31 (not p15)) (or (not p15) p45 p32) (or (not p44) p99 (not p4)) (or p96 (not p26) p12) (or p96 (not p28) (not p78)) (or (not p28) p12 (not p95)) (or p50 (not p27) p40) (or p80 p97 (not p55)) (or (not p11) p10 p81) (or p88 p74 (not p23)) (or p74 (not p76) (not p17)) (or p39 p60 p92) (or (not p28) p3 (not p74)) (or p38 (not p99) p77) (or p3 p99 p42) (or (not p0) (not p80) (not p66)) (or p3 p18 (not p86)) (or p78 p50 p0) (or p81 (not p84) p61) (or (not p51) (not p3) p6) (or (not p7) p96 p60) (or p97 p62 p47) (or p84 p47 p1) (or (not p41) p24 (not p72)) (or (not p81) (not p72) p22) (or (not p95) p97 (not p21)) (or (not p51) (not p54) p80) (or (not p80) (not p87) p21) (or (not p59) p26 p90) (or p6 p21 (not p98)) (or (not p11) p21 (not p38)) (or p49 p98 p82) (or p99 (not p64) (not p47)) (or p65 p30 (not p10)) (or p1 (not p82) p49) (or p81 p85 (not p96)) (or (not p67) p34 p77) (or p15 (not p7) (not p43)) (or p77 p30 p54) (or (not p22) (not p22) (not p48)) (or (not p58) (not p32) p35) (or p66 (not p81) p37) (or p45 p74 p68) (or (not p22) (not p80) p67) (or (not p9) (not p10) p79) (or (not p68) p14 (not p95)) (or p32 p95 p88) (or (not p13) (not p21) (not p11)) (or (not p96) (not p23) (not p59)) (or (not p48) p37 (not p74)) (or p93 p87 (not p35)) (or p12 p68 p77) (or p3 (not p35) p52) (or p14 p66 p49) (or (not p32) p12 (not p97)) (or (not p47) p1 (not p59)) (or (not p85) (not p80) (not p21)) (or (not p21) (not p30) p51) (or p60 p39 (not p27)) (or p32 (not p44) p54) (or p12 (not p7) (not p30)) (or (not p98) p88 p1) (or p46 (not p49) (not p83)) (or p63 p37 (not p73)) (or (not p18) p85 p6) (or (not p78) (not p78) p60) (or p73 p65 p67) (or (not p69) (not p58) (not p53)) (or (not p40) p33 p6) (or p57 p36 (not p11)) (or (not p94) (not p26) (not p7)) (or (not p84) p16 p20) (or (not p82) p1 (not p60)) (or p86 p38 (not p26)) (or (not p19) p12 p89) (or (not p57) (not p88) (not p33)) (or p88 (not p93) p81) (or p96 p82 p58) (or p36 p35 p76) (or (not p53) (not p57) (not p67)) (or p4 (not p51) (not p19)) (or (not p86) p40 p46) (or p43 (not p44) (not p68)) (or (not p19) p55 p47) (or (not p44) p81 p76) (or (not p20) p82 p0) (or (not p15) p21 p14) (or p23 p31 p91) (or (not p59) p60 (not p40)) (or (not p94) p49 (not p42)) (or p77 (not p67) (not p0)) (or (not p1) (not p75) p5) (or (not p8) (not p31) (not p65)) (or (not p17) p67 p12) (or p70 (not p27) p93) (or (not p0) (not p38) (not p48)) (or p39 p62 p17) (or p69 (not p11) p85) (or p35 p87 (not p6)) (or (not p53) (not p63) (not p22)) (or p92 p33 (not p96)) (or (not p62) p26 (not p37)) (or p95 p27 p76) (or (not p45) p70 p40) (or (not p90) (not p76) p72) (or p4 (not p67) (not p82)) (or p26 p15 p34) (or p55 (not p72) p19) (or p5 p4 p51) (or (not p29) (not p2) (not p28)) (or p8 (not p71) p94) (or (not p87) p57 p33) (or (not p52) (not p28) p49) (or (not p26) (not p47) p68) (or p2 (not p74) (not p6)) (or (not p72) (not p70) p86) (or (not p62) p98 (not p27)) (or (not p66) (not p94) p53) (or (not p33) (not p41) (not p9)) (or p76 (not p8) p58) (or (not p20) (not p6) p36) (or p79 p44 (not p25)) (or (not p74) (not p1) (not p80)) (or p94 p87 p32) (or (not p52) (not p85) p46) (or (not p44) p84 (not p71)) (or (not p4) (not p47) (not p70)) (or p86 (not p92) (not p36)) (or p9 (not p14) p12) (or p40 p48 (not p46)) (or p89 (not p60) p76) (or (not p89) p18 (not p75)) (or p12 p78 p39) (or p52 p7 p99) (or (not p88) p28 p3) (or (not p9) (not p49) (not p44)) (or (not p38) p6 (not p43)) (or p0 p34 p40) (or p36 p73 (not p91)) (or p23 p0 (not p16)) (or (not p84) p20 (not p86)) (or (not p24) (not p76) p48) (or (not p16) (not p19) p10) (or p44 (not p61) (not p86)) (or p4 (not p58) (not p97)) (or p63 p35 (not p67)) (or (not p26) p97 (not p58)) (or p78 (not p71) (not p4)) (or p66 (not p7) p42) (or (not p77) p26 p82) (or (not p65) (not p3) (not p81)) (or p3 p0 (not p2)) (or p43 (not p60) (not p17)) (or p61 (not p14) (not p13)) (or p99 p19 p74) (or (not p52) (not p50) (not p45)) (or (not p29) p93 (not p69)) (or (not p86) p52 p82) (or p88 (not p94) p72) (or p4 p51 (not p30)) (or (not p25) (not p82) p51) (or (not p18) (not p62) p14) (or (not p91) (not p53) p7) (or (not p85) (not p34) p89) (or (not p82) (not p57) p20) (or (not p90) (not p89) (not p71)) (or (not p94) (not p87) p2) (or p73 p13 p68) (or (not p19) (not p51) (not p89)) (or (not p86) (not p67) (not p4)) (or (not p16) (not p70) (not p82)) (or p34 (not p81) p8) (or (not p48) p95 (not p25)) (or (not p32) p17 p49) (or p7 (not p78) (not p13)) (or p51 (not p76) p70) (or (not p10) p91 p26) (or (not p89) p3 p27) (or p20 (not p78) p7) (or (not p42) p4 (not p40)) (or (not p74) p38 p4) (or p52 (not p86) (not p65)) (or (not p32) p93 (not p21)) (or p15 p14 p60) (or (not p40) p58 (not p71)) (or (not p42) p56 (not p97)) (or p41 p97 (not p91)) (or (not p27) p79 p55) (or p13 (not p80) p23) (or p15 p83 (not p29)) (or (not p70) (not p34) (not p62)) (or p79 (not p41) p31) (or p86 p58 p58) (or (not p31) (not p95) (not p86)) (or (not p19) (not p85) (not p31)) (or (not p20) (not p82) p91) (or p63 p40 (not p43)) (or p50 p53 (not p55)) (or p65 (not p66) (not p4)) (or (not p40) p13 p23) (or p52 p62 (not p98)) (or (not p2) p88 p52) (or p34 p97 (not p29)) (or (not p43) (not p65) (not p91)) (or p7 p11 (not p93)) (or (not p30) p8 p45) (or (not p42) p70 p98) (or p8 (not p70) (not p9)) (or p0 (not p73) (not p73)) (or (not p0) p68 (not p66)) (or (not p22) p81 p83) (or p44 (not p56) p3) (or (not p62) p89 p26) (or (not p79) (not p57) p28) (or (not p74) p57 (not p87)) (or (not p84) (not p87) p72) (or (not p40) (not p93) p33) (or p36 (not p24) (not p22)) (or p54 (not p15) (not p55)) (or (not p83) p42 p35) (or p93 p96 p99) (or p61 (not p37) p96) (or (not p17) p8 (not p76)) (or p21 p28 p98) (or p36 p41 (not p1)) (or (not p79) p26 p21) (or p51 p44 p66) (or (not p48) (not p88) (not p53)) (or (not p91) p9 (not p10)) (or (not p20) (not p62) (not p65)) (or (not p33) (not p7) (not p33)) (or (not p46) p13 p54) (or p6 (not p49) (not p78)) (or (not p68) (not p15) p73) (or p58 (not p54) p88) (or (not p60) (not p1) p18) (or (not p75) p43 (not p97)) (or p14 p12 p47) (or p17 (not p5) (not p40)) (or (not p63) (not p20) (not p58)) (or (not p26) p36 p63) (or p79 p72 p25) (or (not p94) (not p60) (not p14)) (or p63 (not p75) p12) (or (not p40) p39 p90) (or p92 (not p60) (not p33)) (or p10 p60 p7) (or (not p14) p66 p62) (or p19 (not p61) p57) (or (not p89) p24 p32) (or p84 (not p70) p29) (or p19 (not p59) p52) (or (not p13) (not p67) (not p98)) (or p33 p45 p83) (or p42 p23 p39) (or p40 (not p28) p9) (or p16 p68 (not p8)) (or p38 (not p3) (not p32)) (or (not p25) p43 (not p74)) (or (not p63) (not p7) p55) (or (not p21) (not p23) p99) (or p1 p38 p91) (or (not p93) (not p44) p13) (or p43 p34 p13) (or p28 p73 p40) (or p76 p27 p9) (or p45 (not p18) p76) (or (not p59) p26 (not p16)) (or p70 p59 (not p5)) (or (not p7) p60 (not p78)) (or p87 p16 (not p57)) (or (not p81) p82 p7) (or (not p7) p41 (not p2)))
)
(check-sat)
(get-model)
